; Query 0 -- Type: InitialValues, Instructions: 13463
; This file conforms to SMTLIBv2 and was generated by KLEE
(set-logic QF_AUFBV )
; Array declarations
; Constraints
; Constraints and QueryExpr
(assert
        true
)
(check-sat)
(exit)
;   OK -- Elapsed: 1.863902e-02s
;   Solvable: true

; Query 1 -- Type: InitialValues, Instructions: 13463
; This file conforms to SMTLIBv2 and was generated by KLEE
(set-option :produce-models true)
(set-logic QF_AUFBV )
; Array declarations
(declare-fun inDxe () (Array (_ BitVec 32) (_ BitVec 8) ) )
; Constraints
; Constraints and QueryExpr
(assert
        (= 
           false
           (= 
              (_ bv0 8)
              (select 
                      inDxe
                      (_ bv0 32)
              )
           )
        )
)
(check-sat)
(get-value ( (select inDxe (_ bv0 32) ) ) )
(exit)
;   OK -- Elapsed: 6.226179e-03s
;   Solvable: true
;     inDxe = [255]

; Query 2 -- Type: InitialValues, Instructions: 13474
; This file conforms to SMTLIBv2 and was generated by KLEE
(set-option :produce-models true)
(set-logic QF_AUFBV )
; Array declarations
(declare-fun CommBufferSize () (Array (_ BitVec 32) (_ BitVec 8) ) )
; Constraints
; Constraints and QueryExpr
(assert
        (= 
           false
           (bvule 
                  (concat 
                          (select 
                                  CommBufferSize
                                  (_ bv7 32)
                          )
                          (concat 
                                  (select 
                                          CommBufferSize
                                          (_ bv6 32)
                                  )
                                  (concat 
                                          (select 
                                                  CommBufferSize
                                                  (_ bv5 32)
                                          )
                                          (concat 
                                                  (select 
                                                          CommBufferSize
                                                          (_ bv4 32)
                                                  )
                                                  (concat 
                                                          (select 
                                                                  CommBufferSize
                                                                  (_ bv3 32)
                                                          )
                                                          (concat 
                                                                  (select 
                                                                          CommBufferSize
                                                                          (_ bv2 32)
                                                                  )
                                                                  (concat 
                                                                          (select 
                                                                                  CommBufferSize
                                                                                  (_ bv1 32)
                                                                          )
                                                                          (select 
                                                                                  CommBufferSize
                                                                                  (_ bv0 32)
                                                                          )
                                                                  )
                                                          )
                                                  )
                                          )
                                  )
                          )
                  )
                  (_ bv521142272 64)
           )
        )
)
(check-sat)
(get-value ( (select CommBufferSize (_ bv0 32) ) ) )
(get-value ( (select CommBufferSize (_ bv1 32) ) ) )
(get-value ( (select CommBufferSize (_ bv2 32) ) ) )
(get-value ( (select CommBufferSize (_ bv3 32) ) ) )
(get-value ( (select CommBufferSize (_ bv4 32) ) ) )
(get-value ( (select CommBufferSize (_ bv5 32) ) ) )
(get-value ( (select CommBufferSize (_ bv6 32) ) ) )
(get-value ( (select CommBufferSize (_ bv7 32) ) ) )
(exit)
;   OK -- Elapsed: 2.200836e-02s
;   Solvable: true
;     CommBufferSize = [128,0,16,31,0,0,0,0]

